287	52	4	163	
10	10	8	9

0	0	0	0	0	0	4	1	2	3	4
1	0	0	0	4	10	3	16	23	50
2	0	0	0	1	10	1	9
3	9	0	0	0	7	1	5
4	0	1	0	0	6	1	23
5	0	0	2	0	2	1	6
6	0	0	8	0	9	1	7
7	0	2	0	0	9	1	8
8	0	8	0	0	5	3	10	12	50
9	0	0	2	0	6	1	11
10	0	0	6	0	8	2	20	34
11	0	4	0	0	4	1	12
12	0	0	6	0	10	1	13
13	0	3	0	0	1	1	14
14	10	0	0	0	8	2	15	23
15	0	3	0	0	4	2	16	28
16	0	10	0	0	5	2	17	44
17	4	0	0	0	6	1	18
18	4	0	0	0	2	1	19
19	0	0	1	0	7	2	20	24
20	0	9	0	0	6	2	21	38
21	0	7	0	0	6	2	22	48
22	0	5	0	0	7	1	25
23	0	0	0	8	4	2	26	30
24	8	0	0	0	5	3	27	38	48
25	4	0	0	0	9	1	27
26	0	9	0	0	3	2	28	36
27	0	0	0	9	5	1	29
28	8	0	0	0	8	1	32
29	0	10	0	0	10	1	30
30	0	0	7	0	2	2	31	40
31	0	2	0	0	5	1	36
32	0	0	0	6	4	1	33
33	0	0	6	0	1	1	34
34	0	7	0	0	5	1	35
35	4	0	0	0	4	3	37	38	39
36	3	0	0	0	6	1	39
37	0	0	0	8	10	1	44
38	0	1	0	0	9	2	40	43
39	0	5	0	0	8	2	41	43
40	0	0	8	0	5	2	41	46
41	0	0	0	7	1	1	42
42	7	0	0	0	10	2	45	47
43	0	0	3	0	3	2	46	49
44	0	4	0	0	2	1	48
45	10	0	0	0	3	1	49
46	0	0	0	2	6	1	47
47	0	8	0	0	3	1	51
48	4	0	0	0	2	1	51
49	0	3	0	0	9	1	51
50	0	0	0	5	7	1	51
51	0	0	0	0	0	0
